c A SAT instance generated from a 3-CNF formula that had 39 clauses and 13 variables
p cnf 13 39
-13 -11 -4 0
1 -3 4 0
-10 -6 11 0
4 -6 -1 0
-2 -4 -6 0
-4 -12 3 0
-3 -10 13 0
3 -5 -12 0
-8 9 -1 0
-12 3 6 0
10 11 12 0
5 -6 -9 0
8 -3 6 0
-8 -11 7 0
10 -12 -1 0
10 -4 -2 0
-1 4 -6 0
-8 -3 -12 0
1 -6 2 0
7 13 3 0
-10 4 6 0
-8 -4 -13 0
-1 -11 -3 0
-12 -9 -1 0
10 13 8 0
-5 -3 6 0
-4 3 -12 0
2 -6 13 0
-9 12 5 0
-11 13 3 0
-6 -2 13 0
3 6 -1 0
13 -5 2 0
-4 -10 3 0
-6 -3 1 0
-10 8 7 0
-3 12 -5 0
5 -1 -12 0
-10 9 6 0
